80
[[-1, 16111, 0, -1936204124, 36498, 0, 252417244, 29481, 0, 0, 31336, 0, 0, 0, 0, 0, 0, 0, 0, 0, 0, 0, 0, 35759, 0, 3622, 0, 0, 0, 0, 46084, 0, 0, 1216073943, 913356461, 0, 0, 0, 0, 0, 0, 0, 0, 0, 0, 0, 0, 20680, 0, 0, 0, 0, 0, 0, 0, 0, 0, 0, 0, 0, 0, 0, 0, 0, 0, 0, 0, 1045292870, 0, 0, 0, 30330, 27226, 0, 32045, 0, 13571, 0, 0, 0],[16111, -1, 18610, 1083596582, 0, 0, 518104275, 0, 0, 0, 0, 0, 13593, 0, 0, 13177, 0, 39754, 0, 0, 35614, 25194, 0, 0, 0, 0, 0, 0, 0, 0, 0, 0, 0, -1727414665, -2065456180, 0, 0, 0, 0, 0, 0, 0, 0, 0, 0, 0, 0, 0, 0, 32885, 0, 0, 0, 0, 0, 0, 0, 0, 0, 0, 0, 0, 0, 0, 0, 0, 38245, -2097000146, 33214, 0, 0, 0, 732054896, 0, 0, 0, 0, 0, 46150, 0],[0, 18610, -1, 0, 0, 0, 0, 40665, 0, 0, 0, 0, 0, 0, 36066, 0, 0, 0, 0, 0, 72778956, 0, 0, 0, 0, 0, 0, 44583, 0, 0, 40321, 0, 0, 0, 0, 0, 0, 0, 0, 0, 0, 26478, 0, 0, 0, 0, 0, 41199, 28989, 743865623, 0, 0, 0, 0, 0, 44174, 9076, 0, 0, 0, 0, 0, 0, 45577, 30051, 0, 0, 0, 0, 0, 0, 0, 0, 45664, 0, 0, 10023, 0, 0, 0],[-1936204124, 1083596582, 0, -1, 0, 21095, -1383532578, 0, 0, 0, 0, 0, 0, 43893, 0, 0, 27286, 0, 0, 44319, 0, 0, 0, 0, 0, 0, 0, 0, 0, 0, 0, 39894, 0, 0, 2018676060, 0, 0, 39134, 0, 11340, 0, 0, 0, 0, 0, 0, 0, 0, 0, 0, 0, 0, 0, 0, 0, 0, 0, 0, 0, 0, 0, 0, 0, 29094, 0, 0, -1217198075, 0, 0, 0, 0, 45848, 0, 0, 2034162793, 0, 0, 0, -1174636311, 0],[36498, 0, 0, 0, -1, 0, 0, 95579404, 44983, 0, 0, 17667, 0, 39046, 22650, 0, 0, 0, 0, 0, 31390, 45315, 0, 0, 0, 0, 36751, 18769, 0, 0, 0, 28787, 0, 0, 0, 0, 39129, 0, 0, 0, 0, 20135, 0, 0, 0, 0, 20343, 2000231109, 0, 18973, 32605, 0, 30473, 30733, 0, 0, 0, 17872, 0, 0, 0, 0, 0, 0, 0, 0, 0, 0, 33069, 0, 0, 766831656, 0, 0, 0, 0, 562582308, 16590, 0, 20557],[0, 0, 0, 21095, 0, -1, 0, 0, 0, 0, 0, 4802, 23510, 0, 10415, 0, 0, 0, 0, 1889731074, 0, 0, 0, 0, 0, 0, 0, 0, 0, 0, 20175, 0, 0, 0, 18697, 10982, 0, 0, 0, 1744272802, 0, 0, 0, 0, 0, 0, 0, 41238, 0, 38867, 17735, 0, 0, 28355, 0, 0, 0, 0, 0, 0, 43175, 0, 0, 39635, 33008, 0, 0, 0, 0, 0, 24400, 0, 0, 0, 0, 0, 14836, 0, 0, 0],[252417244, 518104275, 0, -1383532578, 0, 0, -1, 43755, 39769, 0, 0, 43240, 0, 1701116029, 0, 0, 0, 0, 0, 0, 0, 0, 0, 0, 25071, 0, 0, 28164, 0, 0, 0, 0, 35139, -760355724, 0, 45661, 0, 0, 0, 0, 0, 33872, 0, 34553, 0, 17893, 0, 0, 32123, 0, 0, 0, 0, 20567, 0, 0, 0, 33521, 0, 0, 0, 0, 40866, 0, 0, 0, 0, -2056318114, 0, 0, 34900, 0, 0, 0, 0, 0, 0, 32128, 0, 0],[29481, 0, 40665, 0, 95579404, 0, 43755, -1, 0, 39063, 0, -2106938523, 0, 26520, 0, 0, 0, 9490, 0, 0, 0, 0, 0, 115688378, 1451903697, 0, 0, 0, 45208, 0, 0, 0, 0, 0, -1553320483, 0, 0, 37427, 0, 0, 0, 0, 44454, 0, 0, 0, 1356360160, 0, 0, 0, -1566364520, 0, 0, 0, 0, 0, 0, 0, 34312, 0, 0, 0, 0, 0, 0, 0, 0, 33971, 0, 0, 0, 0, 0, 425624359, 2090486508, 37651, 0, 0, 0, 0],[0, 0, 0, 0, 44983, 0, 39769, 0, -1, 0, 0, 0, 0, 0, 0, 42964, 43619, 0, 24643, 38498, 0, 1102563665, 19681, 0, 0, 15702, 0, 0, 0, 43341, 0, 0, 642985555, 0, 25344, 0, 1293827429, 0, 16509, 0, 46228, 43278, 0, 0, 0, 0, 34914, 0, 0, 0, 0, 0, 0, 0, 0, 0, 0, 0, 0, 22138, 0, 0, 0, 0, 0, 0, 0, 0, 0, 0, 0, 43122, 0, 0, 0, 7118, 0, 0, 0, 0],[0, 0, 0, 0, 0, 0, 0, 39063, 0, -1, 36603, 1871813432, 33285, 0, 0, 23712, 32187, 0, 0, 16381, 36522, 0, 19091, 0, 0, 0, 43095, 0, 0, 39870, 0, 0, 0, 0, 0, 38176, 0, 32892, 0, 0, 39299, 39930, 0, 20548, 44364, 0, 0, 0, 0, 0, 0, 0, 0, 0, 0, 0, 0, 37932, 0, 0, 0, 0, 0, 34939, 0, 32600, 37709, 0, 0, 0, 0, 44548, 0, 0, 41637, 1280693998, 0, 0, 4305, 0],[31336, 0, 0, 0, 0, 0, 0, 0, 0, 36603, -1, 0, 0, 0, 0, 0, 0, 35356, 0, 0, 0, 0, 15595, 1931215335, 0, 0, 0, 0, 0, 0, 0, 0, 0, 0, 0, 0, 43292, 0, 0, 0, 16328, 0, 0, 0, 0, 0, 0, 0, 32688, 16029, 0, 0, 0, 0, 0, 11215, 0, 41885, 42445, 0, 38597, 0, 41533, 14587, 0, 0, 0, 44263, 0, 13821, 0, 18415, 0, 0, 0, 42763, 0, 44823, 0, 0],[0, 0, 0, 0, 17667, 4802, 43240, -2106938523, 0, 1871813432, 0, -1, 0, 38901, 0, 0, 0, 0, 0, 0, 9157, 0, 0, 0, 0, 0, 0, 0, 0, 0, 0, 30005, 0, 0, 0, 0, 27928, 0, 0, 33319, 44663, 0, 0, 0, -1836218413, 0, 0, 44545, 0, 37301, 0, 27580, 522197374, 0, 0, 0, 31451, 0, 0, 0, 0, 0, 0, 37641, 0, 0, 0, 0, 0, 0, 0, 0, 0, 19929, 5715, 0, 0, 0, 0, 0],[0, 13593, 0, 0, 0, 23510, 0, 0, 0, 33285, 0, 0, -1, 0, 0, 1152711059, 26302, 0, 44990, 42939, 34355, 0, 0, 0, 39637, 0, 0, 0, 0, 0, 0, 0, 0, 0, 0, 1090960733, 0, 0, 0, 30395, 0, 0, 34127, 0, 0, 28601, 0, 0, 0, 0, 0, 18265, 0, 41496, 0, 3360, 0, 27185, 0, 0, 0, 0, 45506, 0, 0, 0, 0, 0, 0, 0, 0, 38334, 0, 32013, 0, 0, 0, 0, 0, 0],[0, 0, 0, 43893, 39046, 0, 1701116029, 26520, 0, 0, 0, 38901, 0, -1, 31956, 43551, 0, 41878, 42548, 968338914, 0, 0, 0, 0, 41099, 0, 0, 0, 0, 0, 0, 0, 0, 41751, 0, 0, 0, 0, 0, 0, 0, 0, 0, 0, 40657, 0, 19942, 0, 0, 42752, 0, 0, 0, 0, 22085, 21847, 0, 0, 0, 0, 0, 0, 0, 0, 26893, 45111, 28913, 0, 0, 33026, 0, 0, 0, 0, 22018, 0, 0, 0, 0, 1296830833],[0, 0, 36066, 0, 22650, 10415, 0, 0, 0, 0, 0, 0, 0, 31956, -1, 0, 0, 0, 0, 0, 0, 0, 0, 28216, 0, 0, 0, 0, 0, 0, 0, 0, 37255, 0, 0, 0, 40244, 38894, 39188, 0, 0, 458478300, 0, 0, 26064, 0, 0, 0, 0, 0, 0, 0, 0, 0, 0, 0, 0, 0, 15114, 0, 0, 0, 42596, 0, 0, 36537, 20404, 0, 0, 0, 0, 0, 0, 0, 9311, 0, 0, 1789247553, 0, 0],[0, 13177, 0, 0, 0, 0, 0, 0, 42964, 23712, 0, 0, 1152711059, 43551, 0, -1, 0, 1638560915, 0, 36315, 0, 0, 0, 0, 0, 0, 0, 25978, 0, 0, 16468, 0, 0, 30401, 0, 21935, 0, 0, 386784002, 27556, 0, 25364, 17679, 0, 0, 0, 17381, 0, 0, 0, 0, 19925, 0, 0, 0, 0, 10865, 6922, 0, 0, 0, 0, 0, 0, 26740, 0, 0, 0, 0, 21031, 40827, 0, 0, 0, 0, 0, 0, 0, 0, 25028],[0, 0, 0, 27286, 0, 0, 0, 0, 43619, 32187, 0, 0, 26302, 0, 0, 0, -1, 0, 0, 0, 0, 0, 577962040, 0, 0, 9935, 25764, 0, 34956, 0, 0, 0, 0, 37487, 1815375651, 0, 0, 0, 0, 0, 1062763534, 0, 0, 17795, 0, 0, 0, 46276, 0, 0, 0, 0, 0, 32183, 0, 0, 0, 0, 24530, 1379937085, 0, 0, 0, 0, 0, 0, 0, 0, 21620, 0, 0, 0, 0, 0, 0, 0, 0, 0, 11409, 0],[0, 39754, 0, 0, 0, 0, 0, 9490, 0, 0, 35356, 0, 0, 41878, 0, 1638560915, 0, -1, 0, 0, 0, 0, 0, 40467, 0, 0, 0, 0, 0, 0, 0, 0, 0, 0, 0, 9821, 0, 41773, 0, 39129, 0, 0, 1239188734, 0, 19687, 26070, 0, 0, 0, 0, 0, 0, 16339, 40227, 0, 0, 0, 0, 0, 31807, 0, 0, 0, 0, 0, 30146, 0, 0, 0, 0, 0, 0, 0, 0, 44831, 0, 25666, 35736, 16073, 0],[0, 0, 0, 0, 0, 0, 0, 0, 24643, 0, 0, 0, 44990, 42548, 0, 0, 0, 0, -1, 0, 15410, 0, 742931388, 0, 0, 0, 0, 0, 0, 0, 0, 0, 0, 0, 25129, 0, 0, 0, 45654, 0, 0, 0, 0, 0, 44512, 0, 42849, 0, 27189, 0, 0, 38067, 0, 0, 0, 0, 0, 0, 22594, 0, 0, 0, 0, 0, 0, 0, 0, 0, 0, 0, 0, 0, 0, 24252, 0, 0, 0, 0, 0, 36540],[0, 0, 0, 44319, 0, 1889731074, 0, 0, 38498, 16381, 0, 0, 42939, 968338914, 0, 36315, 0, 0, 0, -1, 0, 0, 0, 0, 0, 0, 0, 0, 0, 0, 32289, 778341230, 45706, 33201, 0, 0, 0, 288501335, 0, 19590, 0, 0, 0, 0, 0, 0, 0, 0, 0, 0, 0, 45732, 35783, 5863, 0, 42725, 0, 0, 0, 0, 0, 0, 0, 0, 16406, 0, 0, 0, 2906, 0, -1228337135, 12920, 22162, 0, 0, 0, 44369, 0, 0, 0],[0, 35614, 72778956, 0, 31390, 0, 0, 0, 0, 36522, 0, 9157, 34355, 0, 0, 0, 0, 0, 15410, 0, -1, 545690107, 0, 25289, 0, 0, 1401442337, -1576529659, 35089, 0, 45027, 28240, 0, 0, 45199, 0, 0, 0, 0, 29434, 0, 0, 0, 0, 0, 0, 0, 0, 0, 0, 0, 0, 0, 0, 0, 0, 0, 1771538332, 0, 16230, 0, 0, 0, 0, 0, 1362990429, 0, 0, 0, 0, 0, 19679, 26056, 0, 0, 0, 0, 25533, 0, 0],[0, 25194, 0, 0, 45315, 0, 0, 0, 1102563665, 0, 0, 0, 0, 0, 0, 0, 0, 0, 0, 0, 545690107, -1, 0, 37081, 0, 0, 0, 0, 0, 0, 0, 0, 41324, 38206, 0, 36146, 0, 37117, 20599, 0, 0, 0, 0, 0, 0, 0, 0, 4372, 0, 33563, 20146, 0, 33296, 0, 0, 0, 0, 16947, 0, 0, 0, 0, 0, 0, 34519, 0, 0, 37055, 0, 0, 0, 0, 0, 0, 0, 0, 0, 0, 0, 0],[0, 0, 0, 0, 0, 0, 0, 0, 19681, 19091, 15595, 0, 0, 0, 0, 0, 577962040, 0, 742931388, 0, 0, 0, -1, 0, 0, 0, 0, 33726, 0, 0, 0, 35183, 0, 26312, 43699, 0, 0, 0, 0, 0, 0, 0, 0, 0, 44949, 0, 0, 45773, 0, 0, 0, 0, 0, 34242, 0, 0, 0, 26953, 28327, 0, 0, 0, 0, 24581, 0, 0, 0, 14352, 29662, 274944833, 0, 0, 0, 0, 0, 44148, 0, 44926, 9293, 0],[35759, 0, 0, 0, 0, 0, 0, 115688378, 0, 0, 1931215335, 0, 0, 0, 28216, 0, 0, 40467, 0, 0, 25289, 37081, 0, -1, 0, 850846119, 0, 0, -920562381, 0, 0, 0, 0, 0, 0, 0, 0, 0, 0, 0, 30847, 0, 0, 0, 0, 0, 0, 3200, 39188, 6486, 0, 0, 32785, 0, 27262, 31368, 0, 32520, 0, 0, 36366, 0, 0, 0, 28360, 0, 0, 0, 8239, 0, 0, 0, 10632, 0, 0, 32398, 31751, 0, 0, 0],[0, 0, 0, 0, 0, 0, 25071, 1451903697, 0, 0, 0, 0, 39637, 41099, 0, 0, 0, 0, 0, 0, 0, 0, 0, 0, -1, 36139, 0, 41239, 0, 0, 0, 32899, 0, 0, 0, 0, 31077, 0, 0, 9836, 0, 15595, 25305, 0, 13631, 389606149, 0, 0, 0, 0, 45625, 0, 0, 0, 0, 0, 0, 15611, -1875747578, 30213, 0, 0, 48361027, 0, 0, 0, 0, 0, 0, 0, 0, 0, 0, 0, 0, 0, 0, 11785, 0, 38541],[3622, 0, 0, 0, 0, 0, 0, 0, 15702, 0, 0, 0, 0, 0, 0, 0, 9935, 0, 0, 0, 0, 0, 0, 850846119, 36139, -1, 0, 44262, 29995, 0, 0, 0, 29410, 0, 0, 33006, 0, 0, 0, 0, 40579, 0, 9646, 0, 0, 44109, 0, 0, 0, 22285, 0, 0, 0, 0, 0, 0, 0, 0, 33373, 39652, 0, 0, 0, 0, 0, 0, 0, 25088, 40502, 0, 28226, 0, 0, 0, 43990, 0, 0, 0, 0, 0],[0, 0, 0, 0, 36751, 0, 0, 0, 0, 43095, 0, 0, 0, 0, 0, 0, 25764, 0, 0, 0, 1401442337, 0, 0, 0, 0, 0, -1, 27658, 0, 0, 2581, 0, 0, 0, 0, 0, 0, 0, 0, 0, 0, 24526, 0, 37426, 33649, 0, 0, 0, 4782, 4654, 0, 0, 0, 0, 0, 0, 0, 0, 16268, 0, 0, 0, 0, 0, 0, 0, 35788, 0, 18243, 0, 0, 43602, 0, 0, 0, 34218, 0, 0, 0, 0],[0, 0, 44583, 0, 18769, 0, 28164, 0, 0, 0, 0, 0, 0, 0, 0, 25978, 0, 0, 0, 0, -1576529659, 0, 33726, 0, 41239, 44262, 27658, -1, 0, 0, 31132, 0, 0, 0, 19199, 0, 39644, 0, 0, 0, 0, 0, 0, 0, 43596, 0, 0, 0, 0, 0, 37487, 0, 0, 1997604051, 43078, 0, 0, 11856, 0, 0, 0, 0, 0, 0, 0, 43602, 0, 0, 0, 0, 0, 40186, 0, 0, 0, 19528, 25232, 0, 0, 0],[0, 0, 0, 0, 0, 0, 0, 45208, 0, 0, 0, 0, 0, 0, 0, 0, 34956, 0, 0, 0, 35089, 0, 0, -920562381, 0, 29995, 0, 0, -1, 0, 0, 0, 0, 33562, 0, 0, 0, 0, 6236, 0, 33681, 43508, 0, 0, 36031, 45988, 0, 0, 45146, 0, 0, 0, 0, 0, 0, 37591, 0, 0, 58765007, 0, 0, 0, 12453, 0, 0, 34011, 0, 0, 0, 0, 13148, 0, 42842, 0, 0, 0, 0, 0, 27833, 0],[0, 0, 0, 0, 0, 0, 0, 0, 43341, 39870, 0, 0, 0, 0, 0, 0, 0, 0, 0, 0, 0, 0, 0, 0, 0, 0, 0, 0, 0, -1, 0, 0, 0, 0, 465345122, 0, 0, 0, 0, 0, 0, 0, 0, 0, 0, 0, 0, 0, 0, 0, 40397, 0, 0, 0, 0, 0, 0, 0, 0, 34484, 0, 44059, 0, 0, 0, 0, 0, 11283, 38568, 0, 0, 42000, 12394, 0, 0, 0, 10173, 31064, 41208, 0],[46084, 0, 40321, 0, 0, 20175, 0, 0, 0, 0, 0, 0, 0, 0, 0, 16468, 0, 0, 0, 32289, 45027, 0, 0, 0, 0, 0, 2581, 31132, 0, 0, -1, 34243, 0, -1502287043, 0, 0, 0, 0, 0, 0, 18045, 0, 0, 0, 0, 0, 0, 0, 166379750, 0, 0, 0, 39031, 40001, 0, 0, 445479057, 0, 19220, 0, 0, 35285, 0, 521185516, 0, 31022, 40376, 0, 0, 30164, 0, 0, 0, 0, 0, 0, 0, 25379, 0, 0],[0, 0, 0, 39894, 28787, 0, 0, 0, 0, 0, 0, 30005, 0, 0, 0, 0, 0, 0, 0, 778341230, 28240, 0, 35183, 0, 32899, 0, 0, 0, 0, 0, 34243, -1, 0, 0, 0, 0, 0, 0, 0, 0, 29502, 0, 0, 39072, 10814, 0, 29016, 0, 0, 36131, 0, 0, 0, 0, 0, 0, 0, 0, 0, 0, 0, 0, 0, 0, 43728, 0, 15857, 0, 7336, 40023, 0, 0, 0, 37626, 0, 0, 36428, 0, 0, 0],[0, 0, 0, 0, 0, 0, 35139, 0, 642985555, 0, 0, 0, 0, 0, 37255, 0, 0, 0, 0, 45706, 0, 41324, 0, 0, 0, 29410, 0, 0, 0, 0, 0, 0, -1, 0, 0, 0, 31530, 38467, 0, 0, 0, 0, 0, 0, 0, 0, 15686, 0, 0, 0, 0, 0, 0, 0, 0, 0, 0, 0, 26861, 0, 0, 0, 45394, 0, 0, 0, 0, 0, 0, 37937, 0, 0, 0, 0, 0, 0, 0, 0, 0, 0],[1216073943, -1727414665, 0, 0, 0, 0, -760355724, 0, 0, 0, 0, 0, 0, 41751, 0, 30401, 37487, 0, 0, 33201, 0, 38206, 26312, 0, 0, 0, 0, 0, 33562, 0, -1502287043, 0, 0, -1, 0, 0, 0, 32283, 0, 0, 0, 0, 0, 0, 0, 0, 0, 0, 40262, 0, 0, 0, 0, 26258, 0, 0, 0, 8616, 0, 0, 0, 0, 34114, 26449, 0, 9927, 0, 35518, 0, 16158, 23231, 0, 0, 0, 0, 0, 0, 0, 0, 40558],[913356461, -2065456180, 0, 2018676060, 0, 18697, 0, -1553320483, 25344, 0, 0, 0, 0, 0, 0, 0, 1815375651, 0, 25129, 0, 45199, 0, 43699, 0, 0, 0, 0, 19199, 0, 465345122, 0, 0, 0, 0, -1, 0, 0, 37349, 27659, 0, 0, 0, 0, 40288, 0, 0, 0, 0, 0, 38688, 0, 0, 0, 0, 0, 0, 0, 0, 0, 39618, 1077592613, -1818670205, 0, 11475, 25946, 0, 0, 0, 0, 0, 0, 0, -1243872445, 0, 0, 0, 0, 25717, 0, 0],[0, 0, 0, 0, 0, 10982, 45661, 0, 0, 38176, 0, 0, 1090960733, 0, 0, 21935, 0, 9821, 0, 0, 0, 36146, 0, 0, 0, 33006, 0, 0, 0, 0, 0, 0, 0, 0, 0, -1, 0, 0, 0, 0, 0, 0, 0, 0, 0, 0, 0, 0, 0, 0, 0, 0, 17836, 0, 0, 0, 12080, 0, 0, 0, 0, 16563, 0, 44030, 33360, 0, 45065, 0, 0, 0, 0, 24314, 8394, 0, 0, 34207, 0, 0, 0, 20011],[0, 0, 0, 0, 39129, 0, 0, 0, 1293827429, 0, 43292, 27928, 0, 0, 40244, 0, 0, 0, 0, 0, 0, 0, 0, 0, 31077, 0, 0, 39644, 0, 0, 0, 0, 31530, 0, 0, 0, -1, 0, 0, 32944, 33113, 35075, 0, 0, 0, 0, 0, 45562, 0, 0, 7198, 1237941496, 0, 0, 0, 0, 0, 0, 0, 0, 36124, 43102, 0, 0, 28010, 17558, 0, 0, 0, 0, 0, 0, 0, 0, 0, 33625, 0, 35329, 42446, 0],[0, 0, 0, 39134, 0, 0, 0, 37427, 0, 32892, 0, 0, 0, 0, 38894, 0, 0, 41773, 0, 288501335, 0, 37117, 0, 0, 0, 0, 0, 0, 0, 0, 0, 0, 38467, 32283, 37349, 0, 0, -1, 0, 0, 0, 44749, 36116, 0, 40637, 0, 0, 0, 0, 0, 0, 0, 0, 0, 0, 45197, 0, 0, 0, 0, 26401, 0, 0, 13448, 0, 0, 38207, 0, 46266, 0, 35878, 0, 0, 0, 0, 0, 27120, 0, 0, 45281],[0, 0, 0, 0, 0, 0, 0, 0, 16509, 0, 0, 0, 0, 0, 39188, 386784002, 0, 0, 45654, 0, 0, 20599, 0, 0, 0, 0, 0, 0, 6236, 0, 0, 0, 0, 0, 27659, 0, 0, 0, -1, 0, 0, 0, 14031, 0, 0, 0, 25965, 0, 0, 0, 12609, 24821, 0, 849, 0, 46308, 0, 0, 0, 0, 10995, 0, 0, 6724, 0, 32619, 0, 38087, 0, 0, 44360, 0, 0, 0, 0, 0, 0, 40608, 21206, 20711],[0, 0, 0, 11340, 0, 1744272802, 0, 0, 0, 0, 0, 33319, 30395, 0, 0, 27556, 0, 39129, 0, 19590, 29434, 0, 0, 0, 9836, 0, 0, 0, 0, 0, 0, 0, 0, 0, 0, 0, 32944, 0, 0, -1, 0, 17457, 0, 0, 41398, 0, 0, 0, 39561, 0, 0, 27412, 0, 0, 0, 0, 0, 18782, 35742, 0, 40353, 37806, 0, 0, 38949, 0, 0, 0, 0, 0, 0, 0, 0, 0, 44305, 0, 0, 0, 0, 0],[0, 0, 0, 0, 0, 0, 0, 0, 46228, 39299, 16328, 44663, 0, 0, 0, 0, 1062763534, 0, 0, 0, 0, 0, 0, 30847, 0, 40579, 0, 0, 33681, 0, 18045, 29502, 0, 0, 0, 0, 33113, 0, 0, 0, -1, 0, 0, 0, 0, 0, 0, 0, 0, 0, 0, 0, 0, 0, 18836, 28649, 0, 0, 12020, 0, 4788, 0, 14176, 0, 0, 0, 0, 0, 0, 23538, 0, 0, 0, 0, 0, 0, 0, 0, 0, 39723],[0, 0, 26478, 0, 20135, 0, 33872, 0, 43278, 39930, 0, 0, 0, 0, 458478300, 25364, 0, 0, 0, 0, 0, 0, 0, 0, 15595, 0, 24526, 0, 43508, 0, 0, 0, 0, 0, 0, 0, 35075, 44749, 0, 17457, 0, -1, 0, 844985838, 40182, 42418, 38026, 0, 41837, 0, 0, 0, 23139, 22501, 2980, 560615067, 0, 0, 0, 0, 0, 0, 0, 39681, 0, 0, 0, 0, 0, 0, 0, 0, 0, 0, 0, 0, 0, 0, 0, 0],[0, 0, 0, 0, 0, 0, 0, 44454, 0, 0, 0, 0, 34127, 0, 0, 17679, 0, 1239188734, 0, 0, 0, 0, 0, 0, 25305, 9646, 0, 0, 0, 0, 0, 0, 0, 0, 0, 0, 0, 36116, 14031, 0, 0, 0, -1, 0, 0, 0, 0, 0, 0, 0, 0, 0, 35476, 44704, 0, 0, 24876, 0, 0, 0, 42237, 0, 0, 0, 0, 24418, 0, 0, 0, 0, 0, 42480, 0, 0, 0, 0, 0, 0, 0, 0],[0, 0, 0, 0, 0, 0, 34553, 0, 0, 20548, 0, 0, 0, 0, 0, 0, 17795, 0, 0, 0, 0, 0, 0, 0, 0, 0, 37426, 0, 0, 0, 0, 39072, 0, 0, 40288, 0, 0, 0, 0, 0, 0, 844985838, 0, -1, 0, 19987, 0, 0, 0, 0, 0, 0, 0, 0, 20904, 0, 0, 0, 30025, 0, 23173, 0, 27783, 40156, 0, 0, 0, 40666, 35815, 13359, 44905, 0, 21804, 0, 28385, 23255, 0, 38194, 24198, 0],[0, 0, 0, 0, 0, 0, 0, 0, 0, 44364, 0, -1836218413, 0, 40657, 26064, 0, 0, 19687, 44512, 0, 0, 0, 44949, 0, 13631, 0, 33649, 43596, 36031, 0, 0, 10814, 0, 0, 0, 0, 0, 40637, 0, 41398, 0, 40182, 0, 0, -1, 0, 0, 0, 0, 0, 0, 0, 36273, 0, 0, 0, 0, 30388, 0, 0, 29922, 0, 0, 25665, 0, 0, 0, 0, 0, 0, 16341, 43790, 0, 0, 0, 27759, 0, 0, 0, 33630],[0, 0, 0, 0, 0, 0, 17893, 0, 0, 0, 0, 0, 28601, 0, 0, 0, 0, 26070, 0, 0, 0, 0, 0, 0, 389606149, 44109, 0, 0, 45988, 0, 0, 0, 0, 0, 0, 0, 0, 0, 0, 0, 0, 42418, 0, 19987, 0, -1, 0, 0, 0, 0, 0, 0, 18409, 37580, 0, 44005, 0, 29753, 0, 0, 14188, 0, 0, 0, 0, 18360, 0, 0, 3279, 0, 20929, 0, 33365, 0, 42297, 0, 0, 4099, 0, 0],[0, 0, 0, 0, 20343, 0, 0, 1356360160, 34914, 0, 0, 0, 0, 19942, 0, 17381, 0, 0, 42849, 0, 0, 0, 0, 0, 0, 0, 0, 0, 0, 0, 0, 29016, 15686, 0, 0, 0, 0, 0, 25965, 0, 0, 38026, 0, 0, 0, 0, -1, 0, 33946, 0, 0, 0, 0, 0, 0, 5504, 0, 36552, 0, 0, 0, 0, 0, 0, 30798, 41710, 0, 0, 31055, 0, 0, 0, 0, 0, 0, 38664, 0, 13642, 0, 0],[20680, 0, 41199, 0, 2000231109, 41238, 0, 0, 0, 0, 0, 44545, 0, 0, 0, 0, 46276, 0, 0, 0, 0, 4372, 45773, 3200, 0, 0, 0, 0, 0, 0, 0, 0, 0, 0, 0, 0, 45562, 0, 0, 0, 0, 0, 0, 0, 0, 0, 0, -1, 0, 29522, 0, 43279, 0, 0, 31278, 35355, 22740, 0, 0, 0, 10286, 38294, 0, 32839, 0, 7897, 0, 0, 0, 0, 0, 0, 26312, 0, 0, 0, 0, 44079, 0, 0],[0, 0, 28989, 0, 0, 0, 32123, 0, 0, 0, 32688, 0, 0, 0, 0, 0, 0, 0, 27189, 0, 0, 0, 0, 39188, 0, 0, 4782, 0, 45146, 0, 166379750, 0, 0, 40262, 0, 0, 0, 0, 0, 39561, 0, 41837, 0, 0, 0, 0, 33946, 0, -1, 0, 0, 0, 45494, 0, 0, 0, 0, 0, 46109, 0, 0, 0, 0, 15352, 0, 0, 0, 0, 0, 0, 0, 27794, 0, 41344, 0, 0, 0, 0, 0, 0],[0, 32885, 743865623, 0, 18973, 38867, 0, 0, 0, 0, 16029, 37301, 0, 42752, 0, 0, 0, 0, 0, 0, 0, 33563, 0, 6486, 0, 22285, 4654, 0, 0, 0, 0, 36131, 0, 0, 38688, 0, 0, 0, 0, 0, 0, 0, 0, 0, 0, 0, 0, 29522, 0, -1, 29750, 0, 42492, 0, 0, 0, 24320, 45894, 8055, 0, 36990, 0, 826, 0, 0, 43748, 0, 42336, 0, 0, 1380897885, 39398, 0, 39420, 9241, 0, 45855, 40272, 0, 0],[0, 0, 0, 0, 32605, 17735, 0, -1566364520, 0, 0, 0, 0, 0, 0, 0, 0, 0, 0, 0, 0, 0, 20146, 0, 0, 45625, 0, 0, 37487, 0, 40397, 0, 0, 0, 0, 0, 0, 7198, 0, 12609, 0, 0, 0, 0, 0, 0, 0, 0, 0, 0, 29750, -1, 0, 0, 0, 41975, 0, 0, 35156, 0, 0, 26292, 0, 0, 0, 0, 0, 0, 0, 0, 0, 16859, 24451, 41992, 21530, 0, 0, 46225, 29754, 0, 33659],[0, 0, 0, 0, 0, 0, 0, 0, 0, 0, 0, 27580, 18265, 0, 0, 19925, 0, 0, 38067, 45732, 0, 0, 0, 0, 0, 0, 0, 0, 0, 0, 0, 0, 0, 0, 0, 0, 1237941496, 0, 24821, 27412, 0, 0, 0, 0, 0, 0, 0, 43279, 0, 0, 0, -1, 24732, 33000, 0, 0, 0, 0, 0, 0, 0, 0, 2320, 0, 16956, 0, 0, 39586, 0, 0, 31725, 0, 15630, 0, 0, 0, 0, 0, 0, 36523],[0, 0, 0, 0, 30473, 0, 0, 0, 0, 0, 0, 522197374, 0, 0, 0, 0, 0, 16339, 0, 35783, 0, 33296, 0, 32785, 0, 0, 0, 0, 0, 0, 39031, 0, 0, 0, 0, 17836, 0, 0, 0, 0, 0, 23139, 35476, 0, 36273, 18409, 0, 0, 45494, 42492, 0, 24732, -1, 0, 40579, 0, 0, 31272, 0, 0, 0, 0, 0, 0, 41101, 0, 7091, 0, 0, 0, 44259, 0, 0, 0, 0, 0, 41833, 0, 0, 0],[0, 0, 0, 0, 30733, 28355, 20567, 0, 0, 0, 0, 0, 41496, 0, 0, 0, 32183, 40227, 0, 5863, 0, 0, 34242, 0, 0, 0, 0, 1997604051, 0, 0, 40001, 0, 0, 26258, 0, 0, 0, 0, 849, 0, 0, 22501, 44704, 0, 0, 37580, 0, 0, 0, 0, 0, 33000, 0, -1, 0, 0, 0, 0, 0, 0, 0, 0, 0, 0, 0, 37496, 0, 0, 0, 0, 0, 0, 0, 0, 0, 0, 0, 0, 0, 0],[0, 0, 0, 0, 0, 0, 0, 0, 0, 0, 0, 0, 0, 22085, 0, 0, 0, 0, 0, 0, 0, 0, 0, 27262, 0, 0, 0, 43078, 0, 0, 0, 0, 0, 0, 0, 0, 0, 0, 0, 0, 18836, 2980, 0, 20904, 0, 0, 0, 31278, 0, 0, 41975, 0, 40579, 0, -1, 0, 0, 37661, 0, 0, 0, 0, 27255, 0, 0, 520348655, 0, 0, 0, 42389, 32215, 0, 0, 0, 0, 0, 0, 0, 0, 26950],[0, 0, 44174, 0, 0, 0, 0, 0, 0, 0, 11215, 0, 3360, 21847, 0, 0, 0, 0, 0, 42725, 0, 0, 0, 31368, 0, 0, 0, 0, 37591, 0, 0, 0, 0, 0, 0, 0, 0, 45197, 46308, 0, 28649, 560615067, 0, 0, 0, 44005, 5504, 35355, 0, 0, 0, 0, 0, 0, 0, -1, 0, 0, 15622, 0, 27326, 0, 41757, 0, 0, 0, 24576, 0, 0, 0, 11320, 0, 0, 0, 0, 5422, 0, 43680, 0, 0],[0, 0, 9076, 0, 0, 0, 0, 0, 0, 0, 0, 31451, 0, 0, 0, 10865, 0, 0, 0, 0, 0, 0, 0, 0, 0, 0, 0, 0, 0, 0, 445479057, 0, 0, 0, 0, 12080, 0, 0, 0, 0, 0, 0, 24876, 0, 0, 0, 0, 22740, 0, 24320, 0, 0, 0, 0, 0, 0, -1, 0, 0, 46147, 0, 41636, 0, 0, 0, 0, 43176, 0, 0, 0, 0, 0, 21608, 24536, 25081, 0, 0, 0, 38479, 41598],[0, 0, 0, 0, 17872, 0, 33521, 0, 0, 37932, 41885, 0, 27185, 0, 0, 6922, 0, 0, 0, 0, 1771538332, 16947, 26953, 32520, 15611, 0, 0, 11856, 0, 0, 0, 0, 0, 8616, 0, 0, 0, 0, 0, 18782, 0, 0, 0, 0, 30388, 29753, 36552, 0, 0, 45894, 35156, 0, 31272, 0, 37661, 0, 0, -1, 0, 0, 0, 0, 33976, 0, 0, 0, 0, 0, 0, 0, 0, 0, 0, 0, 0, 0, 36687, 0, 0, 0],[0, 0, 0, 0, 0, 0, 0, 34312, 0, 0, 42445, 0, 0, 0, 15114, 0, 24530, 0, 22594, 0, 0, 0, 28327, 0, -1875747578, 33373, 16268, 0, 58765007, 0, 19220, 0, 26861, 0, 0, 0, 0, 0, 0, 35742, 12020, 0, 0, 30025, 0, 0, 0, 0, 46109, 8055, 0, 0, 0, 0, 0, 15622, 0, 0, -1, 0, 0, 0, 0, 0, 0, 43053, 0, 0, 0, 0, 0, 34047, 0, 0, 0, 0, 0, 18925, 0, 0],[0, 0, 0, 0, 0, 0, 0, 0, 22138, 0, 0, 0, 0, 0, 0, 0, 1379937085, 31807, 0, 0, 16230, 0, 0, 0, 30213, 39652, 0, 0, 0, 34484, 0, 0, 0, 0, 39618, 0, 0, 0, 0, 0, 0, 0, 0, 0, 0, 0, 0, 0, 0, 0, 0, 0, 0, 0, 0, 0, 46147, 0, 0, -1, 0, 1275787480, 0, 0, 0, 0, 0, 32956, 0, 27478, 0, 0, 38923, 0, 0, 0, 0, 0, 0, 0],[0, 0, 0, 0, 0, 43175, 0, 0, 0, 0, 38597, 0, 0, 0, 0, 0, 0, 0, 0, 0, 0, 0, 0, 36366, 0, 0, 0, 0, 0, 0, 0, 0, 0, 0, 1077592613, 0, 36124, 26401, 10995, 40353, 4788, 0, 42237, 23173, 29922, 14188, 0, 10286, 0, 36990, 26292, 0, 0, 0, 0, 27326, 0, 0, 0, 0, -1, 0, 0, 45547, 0, 0, 40786, 0, 0, 0, 0, 0, 0, 38338, 0, 0, 0, 0, 0, 0],[0, 0, 0, 0, 0, 0, 0, 0, 0, 0, 0, 0, 0, 0, 0, 0, 0, 0, 0, 0, 0, 0, 0, 0, 0, 0, 0, 0, 0, 44059, 35285, 0, 0, 0, -1818670205, 16563, 43102, 0, 0, 37806, 0, 0, 0, 0, 0, 0, 0, 38294, 0, 0, 0, 0, 0, 0, 0, 0, 41636, 0, 0, 1275787480, 0, -1, 0, 30838, 0, 25759, 28916, 0, 16383, 0, 37287, 0, 0, 0, 0, 36012, 0, 0, 37607, 0],[0, 0, 0, 0, 0, 0, 40866, 0, 0, 0, 41533, 0, 45506, 0, 42596, 0, 0, 0, 0, 0, 0, 0, 0, 0, 48361027, 0, 0, 0, 12453, 0, 0, 0, 45394, 34114, 0, 0, 0, 0, 0, 0, 14176, 0, 0, 27783, 0, 0, 0, 0, 0, 826, 0, 2320, 0, 0, 27255, 41757, 0, 33976, 0, 0, 0, 0, -1, 0, 0, 0, 0, 46026, 0, 0, 0, 0, 30314, 30777, 0, 37332, 0, 0, 0, 0],[0, 0, 45577, 29094, 0, 39635, 0, 0, 0, 34939, 14587, 37641, 0, 0, 0, 0, 0, 0, 0, 0, 0, 0, 24581, 0, 0, 0, 0, 0, 0, 0, 521185516, 0, 0, 26449, 11475, 44030, 0, 13448, 6724, 0, 0, 39681, 0, 40156, 25665, 0, 0, 32839, 15352, 0, 0, 0, 0, 0, 0, 0, 0, 0, 0, 0, 45547, 30838, 0, -1, 0, 0, 0, 0, 0, 26252, 0, 0, 20438, 0, 0, 0, 29782, 42858, 0, 4622],[0, 0, 30051, 0, 0, 33008, 0, 0, 0, 0, 0, 0, 0, 26893, 0, 26740, 0, 0, 0, 16406, 0, 34519, 0, 28360, 0, 0, 0, 0, 0, 0, 0, 43728, 0, 0, 25946, 33360, 28010, 0, 0, 38949, 0, 0, 0, 0, 0, 0, 30798, 0, 0, 0, 0, 16956, 41101, 0, 0, 0, 0, 0, 0, 0, 0, 0, 0, 0, -1, 16740, 29409, 0, 43761, 0, 22134, 0, 0, 0, 5466, 0, 29775618, 0, 0, 0],[0, 0, 0, 0, 0, 0, 0, 0, 0, 32600, 0, 0, 0, 45111, 36537, 0, 0, 30146, 0, 0, 1362990429, 0, 0, 0, 0, 0, 0, 43602, 34011, 0, 31022, 0, 0, 9927, 0, 0, 17558, 0, 32619, 0, 0, 0, 24418, 0, 0, 18360, 41710, 7897, 0, 43748, 0, 0, 0, 37496, 520348655, 0, 0, 0, 43053, 0, 0, 25759, 0, 0, 16740, -1, 0, 0, 0, 34094, 0, 0, 0, 29420, 0, 0, 0, 0, 13089, 20187],[0, 38245, 0, -1217198075, 0, 0, 0, 0, 0, 37709, 0, 0, 0, 28913, 20404, 0, 0, 0, 0, 0, 0, 0, 0, 0, 0, 0, 35788, 0, 0, 0, 40376, 15857, 0, 0, 0, 45065, 0, 38207, 0, 0, 0, 0, 0, 0, 0, 0, 0, 0, 0, 0, 0, 0, 7091, 0, 0, 24576, 43176, 0, 0, 0, 40786, 28916, 0, 0, 29409, 0, -1, 0, 0, 0, 11115, 0, 0, 0, 0, 0, 0, 0, 1589637821, 0],[1045292870, -2097000146, 0, 0, 0, 0, -2056318114, 33971, 0, 0, 44263, 0, 0, 0, 0, 0, 0, 0, 0, 0, 0, 37055, 14352, 0, 0, 25088, 0, 0, 0, 11283, 0, 0, 0, 35518, 0, 0, 0, 0, 38087, 0, 0, 0, 0, 40666, 0, 0, 0, 0, 0, 42336, 0, 39586, 0, 0, 0, 0, 0, 0, 0, 32956, 0, 0, 46026, 0, 0, 0, 0, -1, 0, 0, 0, 0, 18355, 0, 0, 0, 0, 0, 0, 0],[0, 33214, 0, 0, 33069, 0, 0, 0, 0, 0, 0, 0, 0, 0, 0, 0, 21620, 0, 0, 2906, 0, 0, 29662, 8239, 0, 40502, 18243, 0, 0, 38568, 0, 7336, 0, 0, 0, 0, 0, 46266, 0, 0, 0, 0, 0, 35815, 0, 3279, 31055, 0, 0, 0, 0, 0, 0, 0, 0, 0, 0, 0, 0, 0, 0, 16383, 0, 0, 43761, 0, 0, 0, -1, 34597, 0, 0, -739576502, 0, 34290, 0, 0, 0, 40974, 0],[0, 0, 0, 0, 0, 0, 0, 0, 0, 0, 13821, 0, 0, 33026, 0, 21031, 0, 0, 0, 0, 0, 0, 274944833, 0, 0, 0, 0, 0, 0, 0, 30164, 40023, 37937, 16158, 0, 0, 0, 0, 0, 0, 23538, 0, 0, 13359, 0, 0, 0, 0, 0, 0, 0, 0, 0, 0, 42389, 0, 0, 0, 0, 27478, 0, 0, 0, 26252, 0, 34094, 0, 0, 34597, -1, 0, 15200, 0, 0, 28960, 0, 0, 0, 0, 0],[0, 0, 0, 0, 0, 24400, 34900, 0, 0, 0, 0, 0, 0, 0, 0, 40827, 0, 0, 0, -1228337135, 0, 0, 0, 0, 0, 28226, 0, 0, 13148, 0, 0, 0, 0, 23231, 0, 0, 0, 35878, 44360, 0, 0, 0, 0, 44905, 16341, 20929, 0, 0, 0, 1380897885, 16859, 31725, 44259, 0, 32215, 11320, 0, 0, 0, 0, 0, 37287, 0, 0, 22134, 0, 11115, 0, 0, 0, -1, 0, 0, 0, 42297, 0, 33907, 0, 0, 36090],[30330, 0, 0, 45848, 766831656, 0, 0, 0, 43122, 44548, 18415, 0, 38334, 0, 0, 0, 0, 0, 0, 12920, 19679, 0, 0, 0, 0, 0, 43602, 40186, 0, 42000, 0, 0, 0, 0, 0, 24314, 0, 0, 0, 0, 0, 0, 42480, 0, 43790, 0, 0, 0, 27794, 39398, 24451, 0, 0, 0, 0, 0, 0, 0, 34047, 0, 0, 0, 0, 0, 0, 0, 0, 0, 0, 15200, 0, -1, 33505, 0, 0, 0, 0, 0, 0, 0],[27226, 732054896, 0, 0, 0, 0, 0, 0, 0, 0, 0, 0, 0, 0, 0, 0, 0, 0, 0, 22162, 26056, 0, 0, 10632, 0, 0, 0, 0, 42842, 12394, 0, 0, 0, 0, -1243872445, 8394, 0, 0, 0, 0, 0, 0, 0, 21804, 0, 33365, 0, 26312, 0, 0, 41992, 15630, 0, 0, 0, 0, 21608, 0, 0, 38923, 0, 0, 30314, 20438, 0, 0, 0, 18355, -739576502, 0, 0, 33505, -1, 0, 0, 41777, 0, 0, 0, 0],[0, 0, 45664, 0, 0, 0, 0, 425624359, 0, 0, 0, 19929, 32013, 0, 0, 0, 0, 0, 24252, 0, 0, 0, 0, 0, 0, 0, 0, 0, 0, 0, 0, 37626, 0, 0, 0, 0, 0, 0, 0, 0, 0, 0, 0, 0, 0, 0, 0, 0, 41344, 39420, 21530, 0, 0, 0, 0, 0, 24536, 0, 0, 0, 38338, 0, 30777, 0, 0, 29420, 0, 0, 0, 0, 0, 0, 0, -1, 0, 0, 26194, 0, 0, 0],[32045, 0, 0, 2034162793, 0, 0, 0, 2090486508, 0, 41637, 0, 5715, 0, 22018, 9311, 0, 0, 44831, 0, 0, 0, 0, 0, 0, 0, 43990, 0, 0, 0, 0, 0, 0, 0, 0, 0, 0, 0, 0, 0, 44305, 0, 0, 0, 28385, 0, 42297, 0, 0, 0, 9241, 0, 0, 0, 0, 0, 0, 25081, 0, 0, 0, 0, 0, 0, 0, 5466, 0, 0, 0, 34290, 28960, 42297, 0, 0, 0, -1, 45881, 33176, 0, 44711, 0],[0, 0, 0, 0, 0, 0, 0, 37651, 7118, 1280693998, 42763, 0, 0, 0, 0, 0, 0, 0, 0, 0, 0, 0, 44148, 32398, 0, 0, 34218, 19528, 0, 0, 0, 0, 0, 0, 0, 34207, 33625, 0, 0, 0, 0, 0, 0, 23255, 27759, 0, 38664, 0, 0, 0, 0, 0, 0, 0, 0, 5422, 0, 0, 0, 0, 0, 36012, 37332, 0, 0, 0, 0, 0, 0, 0, 0, 0, 41777, 0, 45881, -1, 0, 0, 0, 0],[13571, 0, 10023, 0, 562582308, 14836, 0, 0, 0, 0, 0, 0, 0, 0, 0, 0, 0, 25666, 0, 44369, 0, 0, 0, 31751, 0, 0, 0, 25232, 0, 10173, 0, 36428, 0, 0, 0, 0, 0, 27120, 0, 0, 0, 0, 0, 0, 0, 0, 0, 0, 0, 45855, 46225, 0, 41833, 0, 0, 0, 0, 36687, 0, 0, 0, 0, 0, 29782, 29775618, 0, 0, 0, 0, 0, 33907, 0, 0, 26194, 33176, 0, -1, 0, 0, 0],[0, 0, 0, 0, 16590, 0, 32128, 0, 0, 0, 44823, 0, 0, 0, 1789247553, 0, 0, 35736, 0, 0, 25533, 0, 44926, 0, 11785, 0, 0, 0, 0, 31064, 25379, 0, 0, 0, 25717, 0, 35329, 0, 40608, 0, 0, 0, 0, 38194, 0, 4099, 13642, 44079, 0, 40272, 29754, 0, 0, 0, 0, 43680, 0, 0, 18925, 0, 0, 0, 0, 42858, 0, 0, 0, 0, 0, 0, 0, 0, 0, 0, 0, 0, 0, -1, 0, 0],[0, 46150, 0, -1174636311, 0, 0, 0, 0, 0, 4305, 0, 0, 0, 0, 0, 0, 11409, 16073, 0, 0, 0, 0, 9293, 0, 0, 0, 0, 0, 27833, 41208, 0, 0, 0, 0, 0, 0, 42446, 0, 21206, 0, 0, 0, 0, 24198, 0, 0, 0, 0, 0, 0, 0, 0, 0, 0, 0, 0, 38479, 0, 0, 0, 0, 37607, 0, 0, 0, 13089, 1589637821, 0, 40974, 0, 0, 0, 0, 0, 44711, 0, 0, 0, -1, 0],[0, 0, 0, 0, 20557, 0, 0, 0, 0, 0, 0, 0, 0, 1296830833, 0, 25028, 0, 0, 36540, 0, 0, 0, 0, 0, 38541, 0, 0, 0, 0, 0, 0, 0, 0, 40558, 0, 20011, 0, 45281, 20711, 0, 39723, 0, 0, 0, 33630, 0, 0, 0, 0, 0, 33659, 36523, 0, 0, 26950, 0, 41598, 0, 0, 0, 0, 0, 0, 4622, 0, 20187, 0, 0, 0, 0, 36090, 0, 0, 0, 0, 0, 0, 0, 0, -1]]